Minimize
 obj: 0 X_0_1
Subject To
 out_0:
  + 1 X_0_1 + 1 X_0_2 + 1 X_0_3 + 1 X_0_4
  = 1
 in_0:
  + 1 X_1_0 + 1 X_2_0 + 1 X_3_0 + 1 X_4_0
  = 1
 out_1:
  + 1 X_1_0 + 1 X_1_2 + 1 X_1_3 + 1 X_1_4
  = 1
 in_1:
  + 1 X_0_1 + 1 X_2_1 + 1 X_3_1 + 1 X_4_1
  = 1
 out_2:
  + 1 X_2_0 + 1 X_2_1 + 1 X_2_3 + 1 X_2_4
  = 1
 in_2:
  + 1 X_0_2 + 1 X_1_2 + 1 X_3_2 + 1 X_4_2
  = 1
 out_3:
  + 1 X_3_0 + 1 X_3_1 + 1 X_3_2 + 1 X_3_4
  = 1
 in_3:
  + 1 X_0_3 + 1 X_1_3 + 1 X_2_3 + 1 X_4_3
  = 1
 out_4:
  + 1 X_4_0 + 1 X_4_1 + 1 X_4_2 + 1 X_4_3
  = 1
 in_4:
  + 1 X_0_4 + 1 X_1_4 + 1 X_2_4 + 1 X_3_4
  = 1
 mtz_1_2:
  + 1 U1 - 1 U2 + 4 X_1_2
  <= 3
 mtz_1_3:
  + 1 U1 - 1 U3 + 4 X_1_3
  <= 3
 mtz_1_4:
  + 1 U1 - 1 U4 + 4 X_1_4
  <= 3
 mtz_2_1:
  + 1 U2 - 1 U1 + 4 X_2_1
  <= 3
 mtz_2_3:
  + 1 U2 - 1 U3 + 4 X_2_3
  <= 3
 mtz_2_4:
  + 1 U2 - 1 U4 + 4 X_2_4
  <= 3
 mtz_3_1:
  + 1 U3 - 1 U1 + 4 X_3_1
  <= 3
 mtz_3_2:
  + 1 U3 - 1 U2 + 4 X_3_2
  <= 3
 mtz_3_4:
  + 1 U3 - 1 U4 + 4 X_3_4
  <= 3
 mtz_4_1:
  + 1 U4 - 1 U1 + 4 X_4_1
  <= 3
 mtz_4_2:
  + 1 U4 - 1 U2 + 4 X_4_2
  <= 3
 mtz_4_3:
  + 1 U4 - 1 U3 + 4 X_4_3
  <= 3
 obj1:
  + 989 X_0_1 + 627 X_0_2 + 1057 X_0_3 + 614 X_0_4 + 989 X_1_0 + 786 X_1_2 + 80 X_1_3 + 901 X_1_4
  + 627 X_2_0 + 786 X_2_1 + 814 X_2_3 + 1053 X_2_4 + 1057 X_3_0 + 80 X_3_1 + 814 X_3_2 + 981 X_3_4
  + 614 X_4_0 + 901 X_4_1 + 1053 X_4_2 + 981 X_4_3
  <= 1
 obj2:
  + 237 X_0_1 + 310 X_0_2 + 617 X_0_3 + 724 X_0_4 + 237 X_1_0 + 468 X_1_2 + 749 X_1_3 + 812 X_1_4
  + 310 X_2_0 + 468 X_2_1 + 307 X_2_3 + 430 X_2_4 + 617 X_3_0 + 749 X_3_1 + 307 X_3_2 + 176 X_3_4
  + 724 X_4_0 + 812 X_4_1 + 430 X_4_2 + 176 X_4_3
  <= 2
 obj3:
  + 501 X_0_1 + 706 X_0_2 + 981 X_0_3 + 955 X_0_4 + 501 X_1_0 + 931 X_1_2 + 1033 X_1_3 + 934 X_1_4
  + 706 X_2_0 + 931 X_2_1 + 379 X_2_3 + 459 X_2_4 + 981 X_3_0 + 1033 X_3_1 + 379 X_3_2 + 156 X_3_4
  + 955 X_4_0 + 934 X_4_1 + 459 X_4_2 + 156 X_4_3
  <= 3
 obj4:
  + 220 X_0_1 + 462 X_0_2 + 516 X_0_3 + 263 X_0_4 + 220 X_1_0 + 431 X_1_2 + 732 X_1_3 + 424 X_1_4
  + 462 X_2_0 + 431 X_2_1 + 744 X_2_3 + 376 X_2_4 + 516 X_3_0 + 732 X_3_1 + 744 X_3_2 + 377 X_3_4
  + 263 X_4_0 + 424 X_4_1 + 376 X_4_2 + 377 X_4_3
  <= 4
 obj5:
  + 893 X_0_1 + 591 X_0_2 + 730 X_0_3 + 159 X_0_4 + 893 X_1_0 + 792 X_1_2 + 841 X_1_3 + 1006 X_1_4
  + 591 X_2_0 + 792 X_2_1 + 139 X_2_3 + 561 X_2_4 + 730 X_3_0 + 841 X_3_1 + 139 X_3_2 + 693 X_3_4
  + 159 X_4_0 + 1006 X_4_1 + 561 X_4_2 + 693 X_4_3
  <= 5
Bounds
 1 <= U1 <= 4
 1 <= U2 <= 4
 1 <= U3 <= 4
 1 <= U4 <= 4
Binary
 X_0_1
 X_0_2
 X_0_3
 X_0_4
 X_1_0
 X_1_2
 X_1_3
 X_1_4
 X_2_0
 X_2_1
 X_2_3
 X_2_4
 X_3_0
 X_3_1
 X_3_2
 X_3_4
 X_4_0
 X_4_1
 X_4_2
 X_4_3
End
